16
123074 248913
517025 1051063
655582 1211866
371336 716645
51246 103462
296092 544575
431720 860033
933989 2039565
561395 1174920
376612 704133
722734 1495071
995095 1907792
568523 1093059
168710 345186
520215 1097141
267362 487799
3780355